NAME          BLANK     FREE
ROWS
 N  OBJROW
 L  constr(0)
 L  constr(1)
 L  constr(2)
 L  constr(3)
 L  constr(4)
 L  constr(5)
 L  constr(6)
 L  constr(7)
 L  constr(8)
 L  constr(9)
COLUMNS
    var(0) OBJROW 4.           constr(0) 3.          
    var(0) constr(1) 6.           constr(3) 1.          
    var(0) constr(5) 8.           constr(6) 4.          
    var(0) constr(7) 5.           constr(9) 8.          
    var(1) OBJROW 6.           constr(1) 5.          
    var(1) constr(2) 2.           constr(4) 9.          
    var(1) constr(5) 3.           constr(9) 9.          
    var(2) OBJROW 9.           constr(0) 3.          
    var(2) constr(2) 6.           constr(3) 3.          
    var(2) constr(7) 9.           constr(8) 2.          
    var(2) constr(9) 6.          
    var(3) OBJROW 8.           constr(1) 8.          
    var(3) constr(6) 1.           constr(7) 7.          
    var(4) OBJROW 5.           constr(6) 9.          
    var(4) constr(8) 4.           constr(9) 3.          
    var(5) OBJROW 1.           constr(0) 5.          
    var(5) constr(5) 4.           constr(8) 2.          
    var(6) OBJROW 9.           constr(1) 9.          
    var(6) constr(2) 4.           constr(3) 7.          
    var(6) constr(4) 1.           constr(7) 3.          
    var(7) OBJROW 7.           constr(0) 7.          
    var(7) constr(1) 8.           constr(4) 2.          
    var(7) constr(6) 1.           constr(8) 1.          
    var(7) constr(9) 1.          
    var(8) OBJROW 9.           constr(3) 9.          
    var(8) constr(5) 4.           constr(6) 1.          
    var(8) constr(9) 7.          
    var(9) OBJROW 6.           constr(2) 4.          
    var(9) constr(8) 9.          
RHS
    RHS constr(0) 9.           constr(1) 16.         
    RHS constr(2) 77.          constr(3) 18.         
    RHS constr(4) 24.          constr(5) 10.         
    RHS constr(6) 8.           constr(7) 47.         
    RHS constr(8) 35.          constr(9) 86.         
ENDATA
